Set parameter TokenServer to value "hpc-licenses.hpcc.usc.edu"
Set parameter TimeLimit to value 3600
Gurobi Optimizer version 9.5.1 build v9.5.1rc2 (linux64)
Thread count: 20 physical cores, 20 logical processors, using up to 20 threads
Optimize a model with 6007 rows, 4529 columns and 24534 nonzeros
Model fingerprint: 0xbd1fefd8
Variable types: 4506 continuous, 23 integer (23 binary)
Coefficient statistics:
  Matrix range     [1e+00, 1e+00]
  Objective range  [1e-03, 1e+00]
  Bounds range     [1e+00, 1e+00]
  RHS range        [1e+00, 2e+02]
Found heuristic solution: objective 220.1159703
Presolve removed 1520 rows and 1515 columns
Presolve time: 0.08s
Presolved: 4487 rows, 3014 columns, 21975 nonzeros
Variable types: 2994 continuous, 20 integer (20 binary)

Root relaxation: objective 2.356122e+02, 2760 iterations, 0.17 seconds (0.21 work units)

    Nodes    |    Current Node    |     Objective Bounds      |     Work
 Expl Unexpl |  Obj  Depth IntInf | Incumbent    BestBd   Gap | It/Node Time

     0     0  235.61223    0    2  220.11597  235.61223  7.04%     -    0s
H    0     0                     234.9726136  235.61223  0.27%     -    0s
     0     0  235.58351    0    4  234.97261  235.58351  0.26%     -    0s
     0     0  235.58351    0    2  234.97261  235.58351  0.26%     -    0s
     0     0  235.57977    0    4  234.97261  235.57977  0.26%     -    0s
     0     0  235.36582    0    4  234.97261  235.36582  0.17%     -    1s
     0     0  235.36582    0    4  234.97261  235.36582  0.17%     -    1s

Cutting planes:
  Gomory: 3
  MIR: 36

Explored 1 nodes (4848 simplex iterations) in 1.27 seconds (0.60 work units)
Thread count was 20 (of 20 available processors)

Solution count 2: 234.973 220.116 

Optimal solution found (tolerance 1.00e-04)
Best objective 2.349726135808e+02, best bound 2.349726135808e+02, gap 0.0000%



#########node  1
V1.6
#########node  2
0.09313725490196081,0.9068627450980392
#########node  3
1.0,0.0


Total Solving Time 1.6766908168792725
obj value 234.9726135808411
Policy Regret train (Sum) 1.948859407221686
Best Treatment Found train (%) 79.80000000000001
treatment classification acc train (%) 50.2
Policy Regret test (Sum) 33.257454375572316
Best Treatment Found test (%) 81.92
treatment classification acc test (%) 50.72
